c Random generated cnf formula, satisfiable: true
p cnf 10 50
2 4 7 0
-2 8 7 0
8 10 3 0
2 -3 10 0
8 -7 10 0
-1 10 4 0
9 -4 -3 0
6 -10 2 0
-10 7 -6 0
1 6 10 0
5 -4 3 0
1 7 9 0
-6 7 5 0
4 -6 -3 0
6 3 -4 0
-5 -3 10 0
6 -2 -5 0
8 6 5 0
-7 -8 -5 0
-9 7 -8 0
8 -9 4 0
-2 10 -9 0
3 -10 8 0
7 10 8 0
-4 -5 10 0
-5 -7 3 0
-8 2 -4 0
1 -5 -4 0
-1 2 -3 0
2 -3 7 0
5 -3 4 0
-4 6 9 0
7 6 -4 0
9 -10 -5 0
-6 -8 -5 0
10 -9 6 0
-1 4 -2 0
-7 1 -9 0
-8 1 9 0
-3 -10 -8 0
10 3 2 0
10 -8 -4 0
-6 3 -5 0
10 -4 9 0
10 3 -7 0
-7 1 -2 0
-9 -3 4 0
-3 10 -7 0
8 -4 3 0
-10 9 -7 0
